memory total 1000 mb
geometry units angstroms
 H 0 0 0
 H 0 0 1.1
end

title "N2 dft optimize"
charge 0
basis
 N library "6-31G"
end
dft
 mult 1
 xc b3lyp
end
task dft optimize

title "N2 dft freq"
charge 0
basis
 N library "6-31G"
end
dft
 mult 1
 xc b3lyp
end
task dft freq

title "N2 dft energy"
charge 0
basis
 N library "6-311G"
end
dft
 mult 1
 xc b3lyp
end
task dft energy
